language ESSENCE' 1.0
letting input=[64,61,34,1,77,47,38,59,22,65,74,30,52,79,76,31,47,74,14,89,54,80,16,9,6,20,15,51,9,81,39,63,43,27,8,56,71,11,46,14,90,38,63,73,89]
letting output=[30,19,25,12,14,6,12,22,6,12,30,9,13,9,19]
letting MAX_OPS=158
letting num_registers=1
